c Reduced graph for p33_2 generated by Cyril Grelier
p edge 54 246
e 1 2
e 1 3
e 1 4
e 1 14
e 1 32
e 1 44
e 2 3
e 2 7
e 2 17
e 2 23
e 2 25
e 2 35
e 2 50
e 3 9
e 3 31
e 3 37
e 3 39
e 4 14
e 4 21
e 4 32
e 4 33
e 4 34
e 4 36
e 4 38
e 4 44
e 5 15
e 5 26
e 5 27
e 5 28
e 5 30
e 5 45
e 5 48
e 5 49
e 6 16
e 6 22
e 6 26
e 6 36
e 6 53
e 7 16
e 7 17
e 7 18
e 7 19
e 7 23
e 7 25
e 7 35
e 7 37
e 7 42
e 7 44
e 7 50
e 8 24
e 8 30
e 8 31
e 8 35
e 8 38
e 8 40
e 8 45
e 8 52
e 8 54
e 9 11
e 9 17
e 9 31
e 9 37
e 9 39
e 10 20
e 10 28
e 10 40
e 10 41
e 10 43
e 10 50
e 10 51
e 10 52
e 11 17
e 11 21
e 11 29
e 11 42
e 11 51
e 12 13
e 12 14
e 12 18
e 12 27
e 12 33
e 12 41
e 12 43
e 12 46
e 12 48
e 12 53
e 13 14
e 13 19
e 13 24
e 13 27
e 13 34
e 13 43
e 13 47
e 13 49
e 13 53
e 14 27
e 14 32
e 14 43
e 14 44
e 14 53
e 15 23
e 15 27
e 15 29
e 15 32
e 15 45
e 16 18
e 16 19
e 16 22
e 16 26
e 16 36
e 16 37
e 16 42
e 16 44
e 16 53
e 17 23
e 17 25
e 17 35
e 17 50
e 18 19
e 18 33
e 18 37
e 18 41
e 18 42
e 18 44
e 18 46
e 18 48
e 19 24
e 19 34
e 19 37
e 19 42
e 19 44
e 19 47
e 19 49
e 20 22
e 20 25
e 20 28
e 20 39
e 20 43
e 20 46
e 20 47
e 20 52
e 20 54
e 21 29
e 21 33
e 21 34
e 21 36
e 21 38
e 21 42
e 21 51
e 22 25
e 22 26
e 22 36
e 22 39
e 22 46
e 22 47
e 22 53
e 22 54
e 23 25
e 23 29
e 23 32
e 23 35
e 23 50
e 24 31
e 24 34
e 24 35
e 24 45
e 24 47
e 24 49
e 24 52
e 25 35
e 25 39
e 25 46
e 25 47
e 25 50
e 25 54
e 26 28
e 26 30
e 26 36
e 26 48
e 26 49
e 26 53
e 27 43
e 27 45
e 27 53
e 28 30
e 28 43
e 28 48
e 28 49
e 28 52
e 29 32
e 29 42
e 29 51
e 30 38
e 30 40
e 30 48
e 30 49
e 30 54
e 31 35
e 31 37
e 31 39
e 31 45
e 31 52
e 32 44
e 33 34
e 33 36
e 33 38
e 33 41
e 33 46
e 33 48
e 34 36
e 34 38
e 34 47
e 34 49
e 35 45
e 35 50
e 35 52
e 36 38
e 36 53
e 37 39
e 37 42
e 37 44
e 38 40
e 38 54
e 39 46
e 39 47
e 39 54
e 40 41
e 40 50
e 40 51
e 40 54
e 41 46
e 41 48
e 41 50
e 41 51
e 42 44
e 42 51
e 43 52
e 43 53
e 45 52
e 46 47
e 46 48
e 46 54
e 47 49
e 47 54
e 48 49
e 50 51
